20
0 1 0.4 0.4
0 2 0.58 0.38
0 3 0.28 0.19
0 4 0.7 0.39
0 5 0.46 0.3
0 6 0.46 0.46
0 7 0.21 0.21
0 8 0.33 0.33
0 9 0.66 0.42
0 10 0.36 0.36
0 11 0.26 0.26
0 12 0.54 0.1
0 13 0.1 0.1
0 14 0.66 0.29
0 15 0.26 0.26
0 16 0.62 0.28
0 17 0.33 0.33
0 18 0.4 0.23
0 19 0.28 0.12
1 2 0.7 0.28
1 3 0.46 0.46
1 4 0.38 0.38
1 5 0.31 0.31
1 6 0.31 0.31
1 7 0.56 0.36
1 8 0.38 0.38
1 9 0.47 0.46
1 10 0.3 0.3
1 11 0.38 0.14
1 12 0.3 0.3
1 13 0.58 0.47
1 14 0.42 0.36
1 15 0.56 0.43
1 16 0.26 0.24
1 17 0.24 0.24
1 18 0.4 0.4
1 19 0.5 0.5
2 3 0.36 0.36
2 4 0.34 0.16
2 5 0.9 0.28
2 6 0.6 0.4
2 7 0.34 0.34
2 8 0.22 0.22
2 9 0.24 0.24
2 10 0.3 0.3
2 11 0.33 0.33
2 12 0.3 0.3
2 13 0.45 0.45
2 14 0.5 0.4
2 15 0.56 0.39
2 16 0.38 0.38
2 17 0.72 0.43
2 18 0.34 0.34
2 19 0.43 0.43
3 4 0.5 0.3
3 5 0.74 0.33
3 6 0.31 0.31
3 7 0.46 0.35
3 8 0.24 0.24
3 9 0.78 0.34
3 10 0.32 0.32
3 11 0.38 0.38
3 12 0.69 0.29
3 13 0.24 0.24
3 14 0.18 0.18
3 15 0.07 0.07
3 16 0.57 0.39
3 17 0.66 0.43
3 18 0.12 0.12
3 19 0.56 0.14
4 5 0.72 0.3
4 6 0.24 0.24
4 7 0.34 0.34
4 8 0.06 0.06
4 9 0.33 0.33
4 10 0.14 0.14
4 11 0.52 0.24
4 12 0.39 0.3
4 13 0.56 0.3
4 14 0.67 0.24
4 15 0.8 0.23
4 16 0.81 0.22
4 17 0.3 0.3
4 18 0.64 0.18
4 19 0.53 0.27
5 6 0.52 0.25
5 7 0.41 0.41
5 8 0.24 0.24
5 9 0.41 0.41
5 10 0.43 0.22
5 11 0.48 0.17
5 12 0.33 0.33
5 13 0.66 0.4
5 14 0.52 0.34
5 15 0.62 0.26
5 16 0.5 0.3
5 17 0.58 0.27
5 18 0.58 0.28
5 19 0.54 0.42
6 7 0.3 0.3
6 8 0.5 0.18
6 9 0.28 0.16
6 10 0.47 0.1
6 11 0.32 0.32
6 12 0.49 0.38
6 13 0.41 0.41
6 14 0.31 0.29
6 15 0.48 0.35
6 16 0.42 0.42
6 17 0.38 0.38
6 18 0.3 0.3
6 19 0.74 0.34
7 8 0.3 0.3
7 9 0.46 0.46
7 10 0.22 0.22
7 11 0.24 0.24
7 12 0.54 0.31
7 13 0.11 0.11
7 14 0.3 0.3
7 15 0.28 0.28
7 16 0.56 0.31
7 17 0.2 0.14
7 18 0.24 0.24
7 19 0.5 0.33
8 9 0.52 0.34
8 10 0.44 0.08
8 11 0.83 0.3
8 12 0.36 0.36
8 13 0.25 0.25
8 14 0.18 0.18
8 15 0.61 0.17
8 16 0.78 0.28
8 17 0.32 0.24
8 18 0.12 0.12
8 19 0.4 0.21
9 10 0.67 0.26
9 11 0.56 0.46
9 12 0.44 0.44
9 13 0.37 0.37
9 14 0.22 0.22
9 15 0.27 0.27
9 16 0.26 0.26
9 17 0.54 0.54
9 18 0.44 0.24
9 19 0.48 0.48
10 11 0.48 0.22
10 12 0.51 0.38
10 13 0.33 0.33
10 14 0.26 0.26
10 15 0.25 0.25
10 16 0.58 0.36
10 17 0.68 0.29
10 18 0.55 0.2
10 19 0.61 0.24
11 12 0.44 0.16
11 13 0.35 0.35
11 14 0.24 0.24
11 15 0.31 0.31
11 16 0.38 0.38
11 17 0.51 0.1
11 18 0.56 0.26
11 19 0.38 0.38
12 13 0.2 0.2
12 14 0.35 0.35
12 15 0.54 0.24
12 16 0.69 0.38
12 17 0.38 0.23
12 18 0.29 0.29
12 19 0.22 0.22
13 14 0.19 0.19
13 15 0.17 0.17
13 16 0.38 0.38
13 17 0.45 0.25
13 18 0.13 0.13
13 19 0.44 0.22
14 15 0.11 0.11
14 16 0.46 0.46
14 17 0.34 0.34
14 18 0.57 0.06
14 19 0.72 0.32
15 16 0.52 0.45
15 17 0.73 0.41
15 18 0.16 0.05
15 19 0.21 0.21
16 17 0.36 0.36
16 18 0.68 0.4
16 19 0.36 0.36
17 18 0.72 0.36
17 19 0.29 0.29
18 19 0.46 0.26
